172 175 174 173 108 109 111 110 107 542 541 543 544 545 546 547 103 104 105 106 118 117 116 115 114 112 161 113 131 130 132 133 134 135 136 141 140 139 138 137 129 128 127 126 125 124 69 70 68 67 66 65 72 71 123 122 121 120 119 73 74 75 77 76 64 62 63 61 60 59 58 57 56 55 83 82 81 80 79 78 88 89 94 95 96 97 98 99 100 102 101 551 550 559 558 557 556 552 553 554 555 91 92 93 90 87 86 85 84 51 50 52 53 54 49 48 47 46 45 44 43 42 39 41 40 38 37 36 35 34 33 32 30 31 29 28 25 22 23 12 13 21 24 26 27 567 566 565 564 563 562 561 560 549 548 478 477 479 480 476 475 482 481 483 537 539 538 540 176 177 178 187 188 186 185 183 182 179 180 181 184 197 196 195 194 193 219 218 220 221 222 223 224 225 226 191 192 190 189 227 228 229 230 231 533 532 531 233 232 234 235 236 238 239 240 237 509 510 511 512 527 513 514 515 516 517 520 521 522 523 526 528 529 530 489 488 534 487 535 536 484 485 486 490 491 492 493 525 524 494 471 472 473 474 570 569 568 20 19 18 17 16 15 14 11 10 9 8 7 6 5 4 3 2 1 0 573 572 571 466 467 468 469 470 495 518 519 497 496 465 464 463 462 461 499 500 501 498 502 503 504 505 308 309 310 313 312 311 451 450 449 448 447 446 442 445 444 443 439 440 441 453 452 459 460 458 457 456 455 454 438 437 436 435 434 433 432 430 431 429 428 427 426 425 424 423 422 421 420 419 417 418 411 412 413 414 416 415 351 352 353 354 355 356 357 359 358 349 350 348 347 345 346 364 363 362 361 360 401 402 403 410 384 383 382 386 389 388 387 385 409 405 404 400 399 406 408 407 397 398 368 365 367 369 370 372 371 396 395 394 393 391 392 390 381 380 379 378 377 314 316 315 376 375 374 373 322 323 324 325 326 327 328 329 366 342 343 344 341 340 330 331 332 333 339 338 337 336 335 334 283 284 285 286 287 280 281 282 279 278 277 276 288 289 290 291 295 296 294 293 292 275 274 273 272 271 269 270 268 267 266 265 264 263 262 258 259 260 261 255 253 254 252 251 250 249 248 256 257 300 299 298 297 321 320 319 317 318 305 306 304 303 307 506 507 508 302 301 241 242 243 244 245 247 246 216 217 215 214 213 212 211 210 209 208 207 206 205 198 199 200 201 202 204 203 165 153 157 146 147 148 152 149 150 151 142 143 144 145 158 159 156 155 160 154 164 166 167 163 162 168 169 171 170